HUN,8,6,595
2,16,1,20,0,25,4,2,3,2,5,13
1,9,2,26,0,27,4,2,3,21,5,2
1,2,0,29,2,8,3,19,5,16,4,26
0,10,2,1,1,11,3,15,5,25,4,7
2,30,1,11,0,21,3,9,4,17,5,13
1,6,0,13,2,11,5,4,4,18,3,10
2,30,1,14,0,23,5,12,4,18,3,19
1,2,2,1,0,12,3,24,5,10,4,3
